NAME          ClpDefau  FREE
ROWS
 N  OBJROW
 L  ZMUNI1_PCT
 L  ZMUNI2_PCT
 L  ZMUNI3_PCT
 L  ZMUNI4_PCT
 L  ZMUNI5_PCT
 L  ZMUNI6_PCT
 L  ZMUNI7_PCT
 L  ZMUNI8_PCT
 L  ZMUNI9_PCT
COLUMNS
    QMUNI1 OBJROW 1.          
    QMUNI1 ZMUNI1_PCT 30043.7928  
    QMUNI1 ZMUNI2_PCT 2043.1519   
    QMUNI1 ZMUNI3_PCT 4499.6262   
    QMUNI1 ZMUNI4_PCT 3543.8537   
    QMUNI1 ZMUNI5_PCT 342.3691    
    QMUNI1 ZMUNI6_PCT 489.235     
    QMUNI1 ZMUNI7_PCT 2251.4343   
    QMUNI1 ZMUNI8_PCT 1762.7716   
    QMUNI1 ZMUNI9_PCT 939.5599    
    QMUNI2 OBJROW 1.          
    QMUNI2 ZMUNI1_PCT 1875.3052   
    QMUNI2 ZMUNI2_PCT 35974.3119  
    QMUNI2 ZMUNI3_PCT 2689.9338   
    QMUNI2 ZMUNI4_PCT 2999.115    
    QMUNI2 ZMUNI5_PCT  -39.2914   
    QMUNI2 ZMUNI6_PCT 78.9643     
    QMUNI2 ZMUNI7_PCT 1221.0846   
    QMUNI2 ZMUNI8_PCT 1444.2444   
    QMUNI2 ZMUNI9_PCT 1352.8824   
    QMUNI3 OBJROW 1.          
    QMUNI3 ZMUNI1_PCT 4353.9048   
    QMUNI3 ZMUNI2_PCT 2859.6878   
    QMUNI3 ZMUNI3_PCT 31544.6854  
    QMUNI3 ZMUNI4_PCT 5588.7222   
    QMUNI3 ZMUNI5_PCT 329.3991    
    QMUNI3 ZMUNI6_PCT 414.2762    
    QMUNI3 ZMUNI7_PCT 1881.4087   
    QMUNI3 ZMUNI8_PCT 1716.2323   
    QMUNI3 ZMUNI9_PCT 1066.0171   
    QMUNI4 OBJROW 1.          
    QMUNI4 ZMUNI1_PCT 3377.9145   
    QMUNI4 ZMUNI2_PCT 3146.3623   
    QMUNI4 ZMUNI3_PCT 5576.3245   
    QMUNI4 ZMUNI4_PCT 117837.9059 
    QMUNI4 ZMUNI5_PCT 263.4048    
    QMUNI4 ZMUNI6_PCT 333.5953    
    QMUNI4 ZMUNI7_PCT 1535.4157   
    QMUNI4 ZMUNI8_PCT 1454.5441   
    QMUNI4 ZMUNI9_PCT 932.312     
    QMUNI5 OBJROW 1.          
    QMUNI5 ZMUNI1_PCT  -42.9153   
    QMUNI5 ZMUNI2_PCT  -150.299   
    QMUNI5 ZMUNI3_PCT  -87.1658   
    QMUNI5 ZMUNI4_PCT  -80.4901   
    QMUNI5 ZMUNI5_PCT 38415.7181  
    QMUNI5 ZMUNI6_PCT 2543.2587   
    QMUNI5 ZMUNI7_PCT  -264.74    
    QMUNI5 ZMUNI8_PCT  -378.4179  
    QMUNI5 ZMUNI9_PCT  -536.5372  
    QMUNI6 OBJROW 1.          
    QMUNI6 ZMUNI1_PCT 179.1001    
    QMUNI6 ZMUNI2_PCT 24.7956     
    QMUNI6 ZMUNI3_PCT 110.817     
    QMUNI6 ZMUNI4_PCT 73.8144     
    QMUNI6 ZMUNI5_PCT 2944.7555   
    QMUNI6 ZMUNI6_PCT 33994.2933  
    QMUNI6 ZMUNI7_PCT 245.285     
    QMUNI6 ZMUNI8_PCT 28.6103     
    QMUNI6 ZMUNI9_PCT  -55.8853   
    QMUNI7 OBJROW 1.          
    QMUNI7 ZMUNI1_PCT 1371.5745   
    QMUNI7 ZMUNI2_PCT 735.4737    
    QMUNI7 ZMUNI3_PCT 1195.9076   
    QMUNI7 ZMUNI4_PCT 980.9494    
    QMUNI7 ZMUNI5_PCT 105.8578    
    QMUNI7 ZMUNI6_PCT 293.541     
    QMUNI7 ZMUNI7_PCT 35285.9497  
    QMUNI7 ZMUNI8_PCT 2311.7066   
    QMUNI7 ZMUNI9_PCT 420.1889    
    QMUNI8 OBJROW 1.          
    QMUNI8 ZMUNI1_PCT 1051.5213   
    QMUNI8 ZMUNI2_PCT 887.2986    
    QMUNI8 ZMUNI3_PCT 1069.6411   
    QMUNI8 ZMUNI4_PCT 894.9279    
    QMUNI8 ZMUNI5_PCT  -117.8742  
    QMUNI8 ZMUNI6_PCT  -27.0843   
    QMUNI8 ZMUNI7_PCT 2397.9187   
    QMUNI8 ZMUNI8_PCT 31482.3151  
    QMUNI8 ZMUNI9_PCT 1036.4532   
    QMUNI9 OBJROW 1.          
    QMUNI9 ZMUNI1_PCT 440.0254    
    QMUNI9 ZMUNI2_PCT 753.0213    
    QMUNI9 ZMUNI3_PCT 535.202     
    QMUNI9 ZMUNI4_PCT 507.5454    
    QMUNI9 ZMUNI5_PCT  -0.1907    
    QMUNI9 ZMUNI6_PCT 23.079      
    QMUNI9 ZMUNI7_PCT 483.7036    
    QMUNI9 ZMUNI8_PCT 1021.1945   
    QMUNI9 ZMUNI9_PCT 31790.1611  
RHS
    RHS ZMUNI1_PCT  -1.7091919 
    RHS ZMUNI2_PCT 0.4654194911
    RHS ZMUNI3_PCT  -0.27309709
    RHS ZMUNI4_PCT 8.5120390726
    RHS ZMUNI5_PCT 1.6786650561
    RHS ZMUNI6_PCT  -0.62517712
    RHS ZMUNI7_PCT 1.3286888965
    RHS ZMUNI8_PCT 1.6722251918
    RHS ZMUNI9_PCT 4.0550317625
BOUNDS
 LO BOUND QMUNI1 -0.000676493
 UP BOUND QMUNI1      1.1e+10
 LO BOUND QMUNI2 -0.000440566
 UP BOUND QMUNI2      1.1e+10
 LO BOUND QMUNI3 -0.00052904 
 UP BOUND QMUNI3      1.1e+10
 LO BOUND QMUNI4 -0.000130289
 UP BOUND QMUNI4      1.1e+10
 LO BOUND QMUNI5 -0.000278296
 UP BOUND QMUNI5      1.1e+10
 LO BOUND QMUNI6 -0.000467885
 UP BOUND QMUNI6      1.1e+10
 LO BOUND QMUNI7 -0.000104033
 UP BOUND QMUNI7      1.1e+10
 LO BOUND QMUNI8 -0.000213744
 UP BOUND QMUNI8      1.1e+10
 LO BOUND QMUNI9 -0.000155054
 UP BOUND QMUNI9      1.1e+10
ENDATA
